outputFlightsA.lp
\ Model generateRegularFlights
\ LP format - for model browsing. Use MPS format to capture full model detail.
Maximize
  FightUse[0,0] + FightUse[1,0] + FightUse[2,0] + FightUse[3,0]
   + FightUse[4,0] + FightUse[5,0] + FightUse[6,0] + FightUse[7,0]
   + FightUse[8,0] + FightUse[9,0]
Subject To
 FightUse{i}: l[0,0] + l[0,1] - 10000 FightUse[0,0] <= 0
 FightUse{i}: - 10000 l[0,0] - 10000 l[0,1] + FightUse[0,0] <= 0
 FightUse{i}: l[1,0] + l[1,1] - 10000 FightUse[1,0] <= 0
 FightUse{i}: - 10000 l[1,0] - 10000 l[1,1] + FightUse[1,0] <= 0
 FightUse{i}: l[2,0] + l[2,1] - 10000 FightUse[2,0] <= 0
 FightUse{i}: - 10000 l[2,0] - 10000 l[2,1] + FightUse[2,0] <= 0
 FightUse{i}: l[3,0] + l[3,1] - 10000 FightUse[3,0] <= 0
 FightUse{i}: - 10000 l[3,0] - 10000 l[3,1] + FightUse[3,0] <= 0
 FightUse{i}: l[4,0] + l[4,1] - 10000 FightUse[4,0] <= 0
 FightUse{i}: - 10000 l[4,0] - 10000 l[4,1] + FightUse[4,0] <= 0
 FightUse{i}: l[5,0] + l[5,1] - 10000 FightUse[5,0] <= 0
 FightUse{i}: - 10000 l[5,0] - 10000 l[5,1] + FightUse[5,0] <= 0
 FightUse{i}: l[6,0] + l[6,1] - 10000 FightUse[6,0] <= 0
 FightUse{i}: - 10000 l[6,0] - 10000 l[6,1] + FightUse[6,0] <= 0
 FightUse{i}: l[7,0] + l[7,1] - 10000 FightUse[7,0] <= 0
 FightUse{i}: - 10000 l[7,0] - 10000 l[7,1] + FightUse[7,0] <= 0
 FightUse{i}: l[8,0] + l[8,1] - 10000 FightUse[8,0] <= 0
 FightUse{i}: - 10000 l[8,0] - 10000 l[8,1] + FightUse[8,0] <= 0
 FightUse{i}: l[9,0] + l[9,1] - 10000 FightUse[9,0] <= 0
 FightUse{i}: - 10000 l[9,0] - 10000 l[9,1] + FightUse[9,0] <= 0
 based{i}{j}[0]: l[0,0] <= 10000
 based{i}{j}[1]: l[0,1] <= 10000
 based{i}{j}: - 2 l[0,0] + l[1,0] <= 0
 based{i}{j}: - 2 l[0,0] - 2 l[1,0] + l[2,0] <= 10000
 based{i}{j}: - 2 l[0,0] - 2 l[1,0] - 2 l[2,0] + l[3,0] <= 10000
 based{i}{j}: - 2 l[0,0] - 2 l[1,0] - 2 l[2,0] - 2 l[3,0] + l[4,0] <= 0
 based{i}{j}: - 2 l[0,0] - 2 l[1,0] - 2 l[2,0] - 2 l[3,0] - 2 l[4,0]
   + l[5,0] <= 0
 based{i}{j}: - 2 l[0,0] - 2 l[1,0] - 2 l[2,0] - 2 l[3,0] - 2 l[4,0]
   - 2 l[5,0] + l[6,0] <= 10000
 based{i}{j}: - 2 l[0,0] - 2 l[1,0] - 2 l[2,0] - 2 l[3,0] - 2 l[4,0]
   - 2 l[5,0] - 2 l[6,0] + l[7,0] <= 10000
 based{i}{j}: - 2 l[0,0] - 2 l[1,0] - 2 l[2,0] - 2 l[3,0] - 2 l[4,0]
   - 2 l[5,0] - 2 l[6,0] - 2 l[7,0] + l[8,0] <= 0
 based{i}{j}: - 2 l[0,0] - 2 l[1,0] - 2 l[2,0] - 2 l[3,0] - 2 l[4,0]
   - 2 l[5,0] - 2 l[6,0] - 2 l[7,0] - 2 l[8,0] + l[9,0] <= 0
 based{i}{j}: - 2 l[0,1] + l[1,1] <= 0
 based{i}{j}: - 2 l[0,1] - 2 l[1,1] + l[2,1] <= 10000
 based{i}{j}: - 2 l[0,1] - 2 l[1,1] - 2 l[2,1] + l[3,1] <= 10000
 based{i}{j}: - 2 l[0,1] - 2 l[1,1] - 2 l[2,1] - 2 l[3,1] + l[4,1] <= 0
 based{i}{j}: - 2 l[0,1] - 2 l[1,1] - 2 l[2,1] - 2 l[3,1] - 2 l[4,1]
   + l[5,1] <= 0
 based{i}{j}: - 2 l[0,1] - 2 l[1,1] - 2 l[2,1] - 2 l[3,1] - 2 l[4,1]
   - 2 l[5,1] + l[6,1] <= 10000
 based{i}{j}: - 2 l[0,1] - 2 l[1,1] - 2 l[2,1] - 2 l[3,1] - 2 l[4,1]
   - 2 l[5,1] - 2 l[6,1] + l[7,1] <= 10000
 based{i}{j}: - 2 l[0,1] - 2 l[1,1] - 2 l[2,1] - 2 l[3,1] - 2 l[4,1]
   - 2 l[5,1] - 2 l[6,1] - 2 l[7,1] + l[8,1] <= 0
 based{i}{j}: - 2 l[0,1] - 2 l[1,1] - 2 l[2,1] - 2 l[3,1] - 2 l[4,1]
   - 2 l[5,1] - 2 l[6,1] - 2 l[7,1] - 2 l[8,1] + l[9,1] <= 0
 basea{i}{j}[0]: l[9,0] <= 10000
 basea{i}{j}[1]: l[9,1] <= 10000
 basea{i}{j}: - l[0,0] - 2 l[1,0] - 2 l[2,0] - 2 l[3,0] - 2 l[4,0]
   - 2 l[5,0] - 2 l[6,0] - 2 l[7,0] - 2 l[8,0] - 2 l[9,0] <= 10000
 basea{i}{j}: - l[1,0] - 2 l[2,0] - 2 l[3,0] - 2 l[4,0] - 2 l[5,0]
   - 2 l[6,0] - 2 l[7,0] - 2 l[8,0] - 2 l[9,0] <= 0
 basea{i}{j}: - l[2,0] - 2 l[3,0] - 2 l[4,0] - 2 l[5,0] - 2 l[6,0]
   - 2 l[7,0] - 2 l[8,0] - 2 l[9,0] <= 10000
 basea{i}{j}: - l[3,0] - 2 l[4,0] - 2 l[5,0] - 2 l[6,0] - 2 l[7,0]
   - 2 l[8,0] - 2 l[9,0] <= 10000
 basea{i}{j}: - l[4,0] - 2 l[5,0] - 2 l[6,0] - 2 l[7,0] - 2 l[8,0]
   - 2 l[9,0] <= 0
 basea{i}{j}: - l[5,0] - 2 l[6,0] - 2 l[7,0] - 2 l[8,0] - 2 l[9,0] <= 0
 basea{i}{j}: - l[6,0] - 2 l[7,0] - 2 l[8,0] - 2 l[9,0] <= 10000
 basea{i}{j}: - l[7,0] - 2 l[8,0] - 2 l[9,0] <= 10000
 basea{i}{j}: - l[8,0] - 2 l[9,0] <= 0
 basea{i}{j}: - l[0,1] - 2 l[1,1] - 2 l[2,1] - 2 l[3,1] - 2 l[4,1]
   - 2 l[5,1] - 2 l[6,1] - 2 l[7,1] - 2 l[8,1] - 2 l[9,1] <= 10000
 basea{i}{j}: - l[1,1] - 2 l[2,1] - 2 l[3,1] - 2 l[4,1] - 2 l[5,1]
   - 2 l[6,1] - 2 l[7,1] - 2 l[8,1] - 2 l[9,1] <= 0
 basea{i}{j}: - l[2,1] - 2 l[3,1] - 2 l[4,1] - 2 l[5,1] - 2 l[6,1]
   - 2 l[7,1] - 2 l[8,1] - 2 l[9,1] <= 10000
 basea{i}{j}: - l[3,1] - 2 l[4,1] - 2 l[5,1] - 2 l[6,1] - 2 l[7,1]
   - 2 l[8,1] - 2 l[9,1] <= 10000
 basea{i}{j}: - l[4,1] - 2 l[5,1] - 2 l[6,1] - 2 l[7,1] - 2 l[8,1]
   - 2 l[9,1] <= 0
 basea{i}{j}: - l[5,1] - 2 l[6,1] - 2 l[7,1] - 2 l[8,1] - 2 l[9,1] <= 0
 basea{i}{j}: - l[6,1] - 2 l[7,1] - 2 l[8,1] - 2 l[9,1] <= 10000
 basea{i}{j}: - l[7,1] - 2 l[8,1] - 2 l[9,1] <= 10000
 basea{i}{j}: - l[8,1] - 2 l[9,1] <= 0
 P{i}{j}: l[0,0] + l[1,0] <= 10001
 P{i}{j}: l[0,0] - 10000 l[1,0] + l[2,0] <= 1
 P{i}{j}: l[0,0] - 10000 l[1,0] - 10000 l[2,0] + l[3,0] <= 1
 P{i}{j}: l[0,0] - 10000 l[1,0] - 10000 l[2,0] - 10000 l[3,0] + l[4,0]
   <= 1
 P{i}{j}: l[0,0] - 10000 l[1,0] - 10000 l[2,0] - 10000 l[3,0]
   - 10000 l[4,0] + l[5,0] <= 1
 P{i}{j}: l[0,0] - 10000 l[1,0] - 10000 l[2,0] - 10000 l[3,0]
   - 10000 l[4,0] - 10000 l[5,0] + l[6,0] <= 1
 P{i}{j}: l[0,0] - 10000 l[1,0] - 10000 l[2,0] - 10000 l[3,0]
   - 10000 l[4,0] - 10000 l[5,0] - 10000 l[6,0] + l[7,0] <= 1
 P{i}{j}: l[0,0] - 10000 l[1,0] - 10000 l[2,0] - 10000 l[3,0]
   - 10000 l[4,0] - 10000 l[5,0] - 10000 l[6,0] - 10000 l[7,0] + l[8,0]
   <= 1
 P{i}{j}: l[0,0] - 10000 l[1,0] - 10000 l[2,0] - 10000 l[3,0]
   - 10000 l[4,0] - 10000 l[5,0] - 10000 l[6,0] - 10000 l[7,0]
   - 10000 l[8,0] + l[9,0] <= 1
 P{i}{j}: l[1,0] + l[2,0] <= 10001
 P{i}{j}: l[1,0] - 10000 l[2,0] + l[3,0] <= 10001
 P{i}{j}: l[1,0] - 10000 l[2,0] - 10000 l[3,0] + l[4,0] <= 1
 P{i}{j}: l[1,0] - 10000 l[2,0] - 10000 l[3,0] - 10000 l[4,0] + l[5,0]
   <= 1
 P{i}{j}: l[1,0] - 10000 l[2,0] - 10000 l[3,0] - 10000 l[4,0]
   - 10000 l[5,0] + l[6,0] <= 10001
 P{i}{j}: l[1,0] - 10000 l[2,0] - 10000 l[3,0] - 10000 l[4,0]
   - 10000 l[5,0] - 10000 l[6,0] + l[7,0] <= 10001
 P{i}{j}: l[1,0] - 10000 l[2,0] - 10000 l[3,0] - 10000 l[4,0]
   - 10000 l[5,0] - 10000 l[6,0] - 10000 l[7,0] + l[8,0] <= 1
 P{i}{j}: l[1,0] - 10000 l[2,0] - 10000 l[3,0] - 10000 l[4,0]
   - 10000 l[5,0] - 10000 l[6,0] - 10000 l[7,0] - 10000 l[8,0] + l[9,0]
   <= 1
 P{i}{j}: l[2,0] + l[3,0] <= 1
 P{i}{j}: l[2,0] - 10000 l[3,0] + l[4,0] <= 10001
 P{i}{j}: l[2,0] - 10000 l[3,0] - 10000 l[4,0] + l[5,0] <= 1
 P{i}{j}: l[2,0] - 10000 l[3,0] - 10000 l[4,0] - 10000 l[5,0] + l[6,0]
   <= 1
 P{i}{j}: l[2,0] - 10000 l[3,0] - 10000 l[4,0] - 10000 l[5,0]
   - 10000 l[6,0] + l[7,0] <= 1
 P{i}{j}: l[2,0] - 10000 l[3,0] - 10000 l[4,0] - 10000 l[5,0]
   - 10000 l[6,0] - 10000 l[7,0] + l[8,0] <= 1
 P{i}{j}: l[2,0] - 10000 l[3,0] - 10000 l[4,0] - 10000 l[5,0]
   - 10000 l[6,0] - 10000 l[7,0] - 10000 l[8,0] + l[9,0] <= 1
 P{i}{j}: l[3,0] + l[4,0] <= 1
 P{i}{j}: l[3,0] - 10000 l[4,0] + l[5,0] <= 10001
 P{i}{j}: l[3,0] - 10000 l[4,0] - 10000 l[5,0] + l[6,0] <= 1
 P{i}{j}: l[3,0] - 10000 l[4,0] - 10000 l[5,0] - 10000 l[6,0] + l[7,0]
   <= 1
 P{i}{j}: l[3,0] - 10000 l[4,0] - 10000 l[5,0] - 10000 l[6,0]
   - 10000 l[7,0] + l[8,0] <= 1
 P{i}{j}: l[3,0] - 10000 l[4,0] - 10000 l[5,0] - 10000 l[6,0]
   - 10000 l[7,0] - 10000 l[8,0] + l[9,0] <= 1
 P{i}{j}: l[4,0] + l[5,0] <= 1
 P{i}{j}: l[4,0] - 10000 l[5,0] + l[6,0] <= 10001
 P{i}{j}: l[4,0] - 10000 l[5,0] - 10000 l[6,0] + l[7,0] <= 10001
 P{i}{j}: l[4,0] - 10000 l[5,0] - 10000 l[6,0] - 10000 l[7,0] + l[8,0]
   <= 1
 P{i}{j}: l[4,0] - 10000 l[5,0] - 10000 l[6,0] - 10000 l[7,0]
   - 10000 l[8,0] + l[9,0] <= 1
 P{i}{j}: l[5,0] + l[6,0] <= 10001
 P{i}{j}: l[5,0] - 10000 l[6,0] + l[7,0] <= 10001
 P{i}{j}: l[5,0] - 10000 l[6,0] - 10000 l[7,0] + l[8,0] <= 1
 P{i}{j}: l[5,0] - 10000 l[6,0] - 10000 l[7,0] - 10000 l[8,0] + l[9,0]
   <= 1
 P{i}{j}: l[6,0] + l[7,0] <= 1
 P{i}{j}: l[6,0] - 10000 l[7,0] + l[8,0] <= 10001
 P{i}{j}: l[6,0] - 10000 l[7,0] - 10000 l[8,0] + l[9,0] <= 1
 P{i}{j}: l[7,0] + l[8,0] <= 1
 P{i}{j}: l[7,0] - 10000 l[8,0] + l[9,0] <= 10001
 P{i}{j}: l[8,0] + l[9,0] <= 1
 P{i}{j}: l[0,1] + l[1,1] <= 10001
 P{i}{j}: l[0,1] - 10000 l[1,1] + l[2,1] <= 1
 P{i}{j}: l[0,1] - 10000 l[1,1] - 10000 l[2,1] + l[3,1] <= 1
 P{i}{j}: l[0,1] - 10000 l[1,1] - 10000 l[2,1] - 10000 l[3,1] + l[4,1]
   <= 1
 P{i}{j}: l[0,1] - 10000 l[1,1] - 10000 l[2,1] - 10000 l[3,1]
   - 10000 l[4,1] + l[5,1] <= 1
 P{i}{j}: l[0,1] - 10000 l[1,1] - 10000 l[2,1] - 10000 l[3,1]
   - 10000 l[4,1] - 10000 l[5,1] + l[6,1] <= 1
 P{i}{j}: l[0,1] - 10000 l[1,1] - 10000 l[2,1] - 10000 l[3,1]
   - 10000 l[4,1] - 10000 l[5,1] - 10000 l[6,1] + l[7,1] <= 1
 P{i}{j}: l[0,1] - 10000 l[1,1] - 10000 l[2,1] - 10000 l[3,1]
   - 10000 l[4,1] - 10000 l[5,1] - 10000 l[6,1] - 10000 l[7,1] + l[8,1]
   <= 1
 P{i}{j}: l[0,1] - 10000 l[1,1] - 10000 l[2,1] - 10000 l[3,1]
   - 10000 l[4,1] - 10000 l[5,1] - 10000 l[6,1] - 10000 l[7,1]
   - 10000 l[8,1] + l[9,1] <= 1
 P{i}{j}: l[1,1] + l[2,1] <= 10001
 P{i}{j}: l[1,1] - 10000 l[2,1] + l[3,1] <= 10001
 P{i}{j}: l[1,1] - 10000 l[2,1] - 10000 l[3,1] + l[4,1] <= 1
 P{i}{j}: l[1,1] - 10000 l[2,1] - 10000 l[3,1] - 10000 l[4,1] + l[5,1]
   <= 1
 P{i}{j}: l[1,1] - 10000 l[2,1] - 10000 l[3,1] - 10000 l[4,1]
   - 10000 l[5,1] + l[6,1] <= 10001
 P{i}{j}: l[1,1] - 10000 l[2,1] - 10000 l[3,1] - 10000 l[4,1]
   - 10000 l[5,1] - 10000 l[6,1] + l[7,1] <= 10001
 P{i}{j}: l[1,1] - 10000 l[2,1] - 10000 l[3,1] - 10000 l[4,1]
   - 10000 l[5,1] - 10000 l[6,1] - 10000 l[7,1] + l[8,1] <= 1
 P{i}{j}: l[1,1] - 10000 l[2,1] - 10000 l[3,1] - 10000 l[4,1]
   - 10000 l[5,1] - 10000 l[6,1] - 10000 l[7,1] - 10000 l[8,1] + l[9,1]
   <= 1
 P{i}{j}: l[2,1] + l[3,1] <= 1
 P{i}{j}: l[2,1] - 10000 l[3,1] + l[4,1] <= 10001
 P{i}{j}: l[2,1] - 10000 l[3,1] - 10000 l[4,1] + l[5,1] <= 1
 P{i}{j}: l[2,1] - 10000 l[3,1] - 10000 l[4,1] - 10000 l[5,1] + l[6,1]
   <= 1
 P{i}{j}: l[2,1] - 10000 l[3,1] - 10000 l[4,1] - 10000 l[5,1]
   - 10000 l[6,1] + l[7,1] <= 1
 P{i}{j}: l[2,1] - 10000 l[3,1] - 10000 l[4,1] - 10000 l[5,1]
   - 10000 l[6,1] - 10000 l[7,1] + l[8,1] <= 1
 P{i}{j}: l[2,1] - 10000 l[3,1] - 10000 l[4,1] - 10000 l[5,1]
   - 10000 l[6,1] - 10000 l[7,1] - 10000 l[8,1] + l[9,1] <= 1
 P{i}{j}: l[3,1] + l[4,1] <= 1
 P{i}{j}: l[3,1] - 10000 l[4,1] + l[5,1] <= 10001
 P{i}{j}: l[3,1] - 10000 l[4,1] - 10000 l[5,1] + l[6,1] <= 1
 P{i}{j}: l[3,1] - 10000 l[4,1] - 10000 l[5,1] - 10000 l[6,1] + l[7,1]
   <= 1
 P{i}{j}: l[3,1] - 10000 l[4,1] - 10000 l[5,1] - 10000 l[6,1]
   - 10000 l[7,1] + l[8,1] <= 1
 P{i}{j}: l[3,1] - 10000 l[4,1] - 10000 l[5,1] - 10000 l[6,1]
   - 10000 l[7,1] - 10000 l[8,1] + l[9,1] <= 1
 P{i}{j}: l[4,1] + l[5,1] <= 1
 P{i}{j}: l[4,1] - 10000 l[5,1] + l[6,1] <= 10001
 P{i}{j}: l[4,1] - 10000 l[5,1] - 10000 l[6,1] + l[7,1] <= 10001
 P{i}{j}: l[4,1] - 10000 l[5,1] - 10000 l[6,1] - 10000 l[7,1] + l[8,1]
   <= 1
 P{i}{j}: l[4,1] - 10000 l[5,1] - 10000 l[6,1] - 10000 l[7,1]
   - 10000 l[8,1] + l[9,1] <= 1
 P{i}{j}: l[5,1] + l[6,1] <= 10001
 P{i}{j}: l[5,1] - 10000 l[6,1] + l[7,1] <= 10001
 P{i}{j}: l[5,1] - 10000 l[6,1] - 10000 l[7,1] + l[8,1] <= 1
 P{i}{j}: l[5,1] - 10000 l[6,1] - 10000 l[7,1] - 10000 l[8,1] + l[9,1]
   <= 1
 P{i}{j}: l[6,1] + l[7,1] <= 1
 P{i}{j}: l[6,1] - 10000 l[7,1] + l[8,1] <= 10001
 P{i}{j}: l[6,1] - 10000 l[7,1] - 10000 l[8,1] + l[9,1] <= 1
 P{i}{j}: l[7,1] + l[8,1] <= 1
 P{i}{j}: l[7,1] - 10000 l[8,1] + l[9,1] <= 10001
 P{i}{j}: l[8,1] + l[9,1] <= 1
 T{i}{j}: l[0,0] + l[1,0] <= 10001
 T{i}{j}: l[0,0] - 10000 l[1,0] + l[2,0] <= 10001
 T{i}{j}: l[0,0] - 10000 l[1,0] - 10000 l[2,0] + l[3,0] <= 10001
 T{i}{j}: l[0,0] - 10000 l[1,0] - 10000 l[2,0] - 10000 l[3,0] + l[4,0]
   <= 10001
 T{i}{j}: l[0,0] - 10000 l[1,0] - 10000 l[2,0] - 10000 l[3,0]
   - 10000 l[4,0] + l[5,0] <= 10001
 T{i}{j}: l[0,0] - 10000 l[1,0] - 10000 l[2,0] - 10000 l[3,0]
   - 10000 l[4,0] - 10000 l[5,0] + l[6,0] <= 10001
 T{i}{j}: l[0,0] - 10000 l[1,0] - 10000 l[2,0] - 10000 l[3,0]
   - 10000 l[4,0] - 10000 l[5,0] - 10000 l[6,0] + l[7,0] <= 10001
 T{i}{j}: l[0,0] - 10000 l[1,0] - 10000 l[2,0] - 10000 l[3,0]
   - 10000 l[4,0] - 10000 l[5,0] - 10000 l[6,0] - 10000 l[7,0] + l[8,0]
   <= 10001
 T{i}{j}: l[0,0] - 10000 l[1,0] - 10000 l[2,0] - 10000 l[3,0]
   - 10000 l[4,0] - 10000 l[5,0] - 10000 l[6,0] - 10000 l[7,0]
   - 10000 l[8,0] + l[9,0] <= 10001
 T{i}{j}: l[1,0] + l[2,0] <= 1
 T{i}{j}: l[1,0] - 10000 l[2,0] + l[3,0] <= 10001
 T{i}{j}: l[1,0] - 10000 l[2,0] - 10000 l[3,0] + l[4,0] <= 10001
 T{i}{j}: l[1,0] - 10000 l[2,0] - 10000 l[3,0] - 10000 l[4,0] + l[5,0]
   <= 10001
 T{i}{j}: l[1,0] - 10000 l[2,0] - 10000 l[3,0] - 10000 l[4,0]
   - 10000 l[5,0] + l[6,0] <= 10001
 T{i}{j}: l[1,0] - 10000 l[2,0] - 10000 l[3,0] - 10000 l[4,0]
   - 10000 l[5,0] - 10000 l[6,0] + l[7,0] <= 10001
 T{i}{j}: l[1,0] - 10000 l[2,0] - 10000 l[3,0] - 10000 l[4,0]
   - 10000 l[5,0] - 10000 l[6,0] - 10000 l[7,0] + l[8,0] <= 10001
 T{i}{j}: l[1,0] - 10000 l[2,0] - 10000 l[3,0] - 10000 l[4,0]
   - 10000 l[5,0] - 10000 l[6,0] - 10000 l[7,0] - 10000 l[8,0] + l[9,0]
   <= 10001
 T{i}{j}: l[2,0] + l[3,0] <= 1
 T{i}{j}: l[2,0] - 10000 l[3,0] + l[4,0] <= 10001
 T{i}{j}: l[2,0] - 10000 l[3,0] - 10000 l[4,0] + l[5,0] <= 10001
 T{i}{j}: l[2,0] - 10000 l[3,0] - 10000 l[4,0] - 10000 l[5,0] + l[6,0]
   <= 10001
 T{i}{j}: l[2,0] - 10000 l[3,0] - 10000 l[4,0] - 10000 l[5,0]
   - 10000 l[6,0] + l[7,0] <= 10001
 T{i}{j}: l[2,0] - 10000 l[3,0] - 10000 l[4,0] - 10000 l[5,0]
   - 10000 l[6,0] - 10000 l[7,0] + l[8,0] <= 10001
 T{i}{j}: l[2,0] - 10000 l[3,0] - 10000 l[4,0] - 10000 l[5,0]
   - 10000 l[6,0] - 10000 l[7,0] - 10000 l[8,0] + l[9,0] <= 10001
 T{i}{j}: l[3,0] + l[4,0] <= 1
 T{i}{j}: l[3,0] - 10000 l[4,0] + l[5,0] <= 10001
 T{i}{j}: l[3,0] - 10000 l[4,0] - 10000 l[5,0] + l[6,0] <= 10001
 T{i}{j}: l[3,0] - 10000 l[4,0] - 10000 l[5,0] - 10000 l[6,0] + l[7,0]
   <= 10001
 T{i}{j}: l[3,0] - 10000 l[4,0] - 10000 l[5,0] - 10000 l[6,0]
   - 10000 l[7,0] + l[8,0] <= 10001
 T{i}{j}: l[3,0] - 10000 l[4,0] - 10000 l[5,0] - 10000 l[6,0]
   - 10000 l[7,0] - 10000 l[8,0] + l[9,0] <= 10001
 T{i}{j}: l[4,0] + l[5,0] <= 1
 T{i}{j}: l[4,0] - 10000 l[5,0] + l[6,0] <= 1
 T{i}{j}: l[4,0] - 10000 l[5,0] - 10000 l[6,0] + l[7,0] <= 10001
 T{i}{j}: l[4,0] - 10000 l[5,0] - 10000 l[6,0] - 10000 l[7,0] + l[8,0]
   <= 10001
 T{i}{j}: l[4,0] - 10000 l[5,0] - 10000 l[6,0] - 10000 l[7,0]
   - 10000 l[8,0] + l[9,0] <= 10001
 T{i}{j}: l[5,0] + l[6,0] <= 10001
 T{i}{j}: l[5,0] - 10000 l[6,0] + l[7,0] <= 10001
 T{i}{j}: l[5,0] - 10000 l[6,0] - 10000 l[7,0] + l[8,0] <= 10001
 T{i}{j}: l[5,0] - 10000 l[6,0] - 10000 l[7,0] - 10000 l[8,0] + l[9,0]
   <= 10001
 T{i}{j}: l[6,0] + l[7,0] <= 1
 T{i}{j}: l[6,0] - 10000 l[7,0] + l[8,0] <= 10001
 T{i}{j}: l[6,0] - 10000 l[7,0] - 10000 l[8,0] + l[9,0] <= 10001
 T{i}{j}: l[7,0] + l[8,0] <= 1
 T{i}{j}: l[7,0] - 10000 l[8,0] + l[9,0] <= 10001
 T{i}{j}: l[8,0] + l[9,0] <= 1
 T{i}{j}: l[0,1] + l[1,1] <= 10001
 T{i}{j}: l[0,1] - 10000 l[1,1] + l[2,1] <= 10001
 T{i}{j}: l[0,1] - 10000 l[1,1] - 10000 l[2,1] + l[3,1] <= 10001
 T{i}{j}: l[0,1] - 10000 l[1,1] - 10000 l[2,1] - 10000 l[3,1] + l[4,1]
   <= 10001
 T{i}{j}: l[0,1] - 10000 l[1,1] - 10000 l[2,1] - 10000 l[3,1]
   - 10000 l[4,1] + l[5,1] <= 10001
 T{i}{j}: l[0,1] - 10000 l[1,1] - 10000 l[2,1] - 10000 l[3,1]
   - 10000 l[4,1] - 10000 l[5,1] + l[6,1] <= 10001
 T{i}{j}: l[0,1] - 10000 l[1,1] - 10000 l[2,1] - 10000 l[3,1]
   - 10000 l[4,1] - 10000 l[5,1] - 10000 l[6,1] + l[7,1] <= 10001
 T{i}{j}: l[0,1] - 10000 l[1,1] - 10000 l[2,1] - 10000 l[3,1]
   - 10000 l[4,1] - 10000 l[5,1] - 10000 l[6,1] - 10000 l[7,1] + l[8,1]
   <= 10001
 T{i}{j}: l[0,1] - 10000 l[1,1] - 10000 l[2,1] - 10000 l[3,1]
   - 10000 l[4,1] - 10000 l[5,1] - 10000 l[6,1] - 10000 l[7,1]
   - 10000 l[8,1] + l[9,1] <= 10001
 T{i}{j}: l[1,1] + l[2,1] <= 1
 T{i}{j}: l[1,1] - 10000 l[2,1] + l[3,1] <= 10001
 T{i}{j}: l[1,1] - 10000 l[2,1] - 10000 l[3,1] + l[4,1] <= 10001
 T{i}{j}: l[1,1] - 10000 l[2,1] - 10000 l[3,1] - 10000 l[4,1] + l[5,1]
   <= 10001
 T{i}{j}: l[1,1] - 10000 l[2,1] - 10000 l[3,1] - 10000 l[4,1]
   - 10000 l[5,1] + l[6,1] <= 10001
 T{i}{j}: l[1,1] - 10000 l[2,1] - 10000 l[3,1] - 10000 l[4,1]
   - 10000 l[5,1] - 10000 l[6,1] + l[7,1] <= 10001
 T{i}{j}: l[1,1] - 10000 l[2,1] - 10000 l[3,1] - 10000 l[4,1]
   - 10000 l[5,1] - 10000 l[6,1] - 10000 l[7,1] + l[8,1] <= 10001
 T{i}{j}: l[1,1] - 10000 l[2,1] - 10000 l[3,1] - 10000 l[4,1]
   - 10000 l[5,1] - 10000 l[6,1] - 10000 l[7,1] - 10000 l[8,1] + l[9,1]
   <= 10001
 T{i}{j}: l[2,1] + l[3,1] <= 1
 T{i}{j}: l[2,1] - 10000 l[3,1] + l[4,1] <= 10001
 T{i}{j}: l[2,1] - 10000 l[3,1] - 10000 l[4,1] + l[5,1] <= 10001
 T{i}{j}: l[2,1] - 10000 l[3,1] - 10000 l[4,1] - 10000 l[5,1] + l[6,1]
   <= 10001
 T{i}{j}: l[2,1] - 10000 l[3,1] - 10000 l[4,1] - 10000 l[5,1]
   - 10000 l[6,1] + l[7,1] <= 10001
 T{i}{j}: l[2,1] - 10000 l[3,1] - 10000 l[4,1] - 10000 l[5,1]
   - 10000 l[6,1] - 10000 l[7,1] + l[8,1] <= 10001
 T{i}{j}: l[2,1] - 10000 l[3,1] - 10000 l[4,1] - 10000 l[5,1]
   - 10000 l[6,1] - 10000 l[7,1] - 10000 l[8,1] + l[9,1] <= 10001
 T{i}{j}: l[3,1] + l[4,1] <= 1
 T{i}{j}: l[3,1] - 10000 l[4,1] + l[5,1] <= 10001
 T{i}{j}: l[3,1] - 10000 l[4,1] - 10000 l[5,1] + l[6,1] <= 10001
 T{i}{j}: l[3,1] - 10000 l[4,1] - 10000 l[5,1] - 10000 l[6,1] + l[7,1]
   <= 10001
 T{i}{j}: l[3,1] - 10000 l[4,1] - 10000 l[5,1] - 10000 l[6,1]
   - 10000 l[7,1] + l[8,1] <= 10001
 T{i}{j}: l[3,1] - 10000 l[4,1] - 10000 l[5,1] - 10000 l[6,1]
   - 10000 l[7,1] - 10000 l[8,1] + l[9,1] <= 10001
 T{i}{j}: l[4,1] + l[5,1] <= 1
 T{i}{j}: l[4,1] - 10000 l[5,1] + l[6,1] <= 1
 T{i}{j}: l[4,1] - 10000 l[5,1] - 10000 l[6,1] + l[7,1] <= 10001
 T{i}{j}: l[4,1] - 10000 l[5,1] - 10000 l[6,1] - 10000 l[7,1] + l[8,1]
   <= 10001
 T{i}{j}: l[4,1] - 10000 l[5,1] - 10000 l[6,1] - 10000 l[7,1]
   - 10000 l[8,1] + l[9,1] <= 10001
 T{i}{j}: l[5,1] + l[6,1] <= 10001
 T{i}{j}: l[5,1] - 10000 l[6,1] + l[7,1] <= 10001
 T{i}{j}: l[5,1] - 10000 l[6,1] - 10000 l[7,1] + l[8,1] <= 10001
 T{i}{j}: l[5,1] - 10000 l[6,1] - 10000 l[7,1] - 10000 l[8,1] + l[9,1]
   <= 10001
 T{i}{j}: l[6,1] + l[7,1] <= 1
 T{i}{j}: l[6,1] - 10000 l[7,1] + l[8,1] <= 10001
 T{i}{j}: l[6,1] - 10000 l[7,1] - 10000 l[8,1] + l[9,1] <= 10001
 T{i}{j}: l[7,1] + l[8,1] <= 1
 T{i}{j}: l[7,1] - 10000 l[8,1] + l[9,1] <= 10001
 T{i}{j}: l[8,1] + l[9,1] <= 1
Bounds
Binaries
 l[0,0] l[0,1] l[1,0] l[1,1] l[2,0] l[2,1] l[3,0] l[3,1] l[4,0] l[4,1]
 l[5,0] l[5,1] l[6,0] l[6,1] l[7,0] l[7,1] l[8,0] l[8,1] l[9,0] l[9,1]
 FightUse[0,0] FightUse[1,0] FightUse[2,0] FightUse[3,0] FightUse[4,0]
 FightUse[5,0] FightUse[6,0] FightUse[7,0] FightUse[8,0] FightUse[9,0]
End
